161
0 107 83 18 97 130 91 141 53 150 
5 147 153 145 131 89 36 155 13 86 
49 72 135 55 32 73 111 24 103 82 
87 59 158 116 46 79 133 68 34 66 
6 137 23 1 75 64 160 19 67 30 
113 128 22 102 143 152 71 15 117 11 
69 81 85 50 99 80 142 120 94 95 
63 56 157 38 62 134 140 104 57 76 
114 9 106 37 109 26 39 74 31 110 
118 45 119 148 129 126 41 70 40 33 
156 149 4 42 123 21 96 127 122 25 
124 90 7 78 136 35 48 14 54 2 
93 44 132 61 77 159 52 60 154 112 
65 88 84 28 151 3 146 16 125 115 
121 17 12 20 43 29 27 8 100 144 
92 98 108 10 58 139 51 138 47 101 
105 
